Optimal - objective value 79.88000000
      3 x_3                    3                       0
     17 x_17                   3                    2.04
     20 x_20                   3                       0
     31 x_31                   1                       0
     43 x_43                   2                       0
     48 y_3                    1                    6.56
     62 y_17                   1                    8.37
     65 y_20                   1                    6.14
     76 y_31                   1                    3.64
     88 y_43                   1                    6.92
